
n_res = 8;
rcap = [71, 80, 77, 79, 1840, 1722, 1631, 1608];
rtype = [1, 1, 1, 1, 2, 2, 2, 2];
n_tasks = 100;
modes =  [{1, 2, 3}, {4, 5, 6}, {7, 8, 9}, {10, 11, 12}, {13, 14, 15}, {16, 17, 18}, {19, 20, 21}, {22, 23, 24}, {25, 26, 27}, {28, 29, 30}, {31, 32, 33}, {34, 35, 36}, {37, 38, 39}, {40, 41, 42}, {43, 44, 45}, {46, 47, 48}, {49, 50, 51}, {52, 53, 54}, {55, 56, 57}, {58, 59, 60}, {61, 62, 63}, {64, 65, 66}, {67, 68, 69}, {70, 71, 72}, {73, 74, 75}, {76, 77, 78}, {79, 80, 81}, {82, 83, 84}, {85, 86, 87}, {88, 89, 90}, {91, 92, 93}, {94, 95, 96}, {97, 98, 99}, {100, 101, 102}, {103, 104, 105}, {106, 107, 108}, {109, 110, 111}, {112, 113, 114}, {115, 116, 117}, {118, 119, 120}, {121, 122, 123}, {124, 125, 126}, {127, 128, 129}, {130, 131, 132}, {133, 134, 135}, {136, 137, 138}, {139, 140, 141}, {142, 143, 144}, {145, 146, 147}, {148, 149, 150}, {151, 152, 153}, {154, 155, 156}, {157, 158, 159}, {160, 161, 162}, {163, 164, 165}, {166, 167, 168}, {169, 170, 171}, {172, 173, 174}, {175, 176, 177}, {178, 179, 180}, {181, 182, 183}, {184, 185, 186}, {187, 188, 189}, {190, 191, 192}, {193, 194, 195}, {196, 197, 198}, {199, 200, 201}, {202, 203, 204}, {205, 206, 207}, {208, 209, 210}, {211, 212, 213}, {214, 215, 216}, {217, 218, 219}, {220, 221, 222}, {223, 224, 225}, {226, 227, 228}, {229, 230, 231}, {232, 233, 234}, {235, 236, 237}, {238, 239, 240}, {241, 242, 243}, {244, 245, 246}, {247, 248, 249}, {250, 251, 252}, {253, 254, 255}, {256, 257, 258}, {259, 260, 261}, {262, 263, 264}, {265, 266, 267}, {268, 269, 270}, {271, 272, 273}, {274, 275, 276}, {277, 278, 279}, {280, 281, 282}, {283, 284, 285}, {286, 287, 288}, {289, 290, 291}, {292, 293, 294}, {295, 296, 297}, {298, 299, 300}];
succ =  [{63, 55, 51, 50, 48, 47, 42, 41, 27, 22}, {100, 99, 98, 97, 96, 95, 94, 71, 70, 69, 67, 64, 63, 62, 57, 56, 55, 53, 51, 50, 43, 41}, {100, 96, 95, 69, 56, 53, 51, 41, 38, 36, 31, 27}, {69, 67, 64, 43, 41, 35, 32, 25}, {93, 90, 88, 81, 72, 70, 69, 68, 67, 66, 64, 63, 60, 56, 55, 51, 50, 46, 43}, {99, 98, 92, 70, 62, 59, 58, 55, 54, 48, 44, 25}, {100, 96, 67, 55, 50, 48, 15}, {95, 94, 91, 90, 71, 66, 63, 62, 58, 57, 55, 54, 53, 51, 50, 45, 44}, {99, 96, 95, 94, 88, 69, 68, 67, 63, 58, 56, 53, 50, 43, 41}, {95, 94, 91, 88, 86, 84, 71, 70, 68, 64, 49, 38, 28}, {97, 95, 93, 91, 90, 88, 81, 71, 69, 68, 67, 66, 63, 62, 54, 52, 51, 50, 49}, {100, 99, 98, 94, 92, 89, 85, 82, 77, 72, 69, 64, 63, 61, 59, 57, 44, 43}, {98, 95, 94, 93, 92, 88, 86, 82, 77, 76, 70, 68, 64, 63, 61, 60, 57, 43}, {96, 95, 94, 90, 89, 88, 87, 82, 66, 65, 63, 61, 60, 55, 54, 53, 48}, {95, 94, 88, 70, 69, 63, 61, 53, 43, 41}, {96, 94, 92, 91, 90, 88, 85, 82, 77, 68, 67, 62, 61, 57, 56, 54, 53, 49}, {92, 91, 90, 89, 86, 85, 83, 82, 77, 69, 68, 67, 61, 60, 55, 54, 47}, {95, 94, 90, 89, 85, 83, 82, 78, 69, 66, 61, 60, 56, 53, 47}, {98, 97, 96, 95, 92, 91, 90, 89, 88, 86, 85, 82, 81, 79, 76, 67, 66, 65, 64, 63, 62, 61}, {100, 97, 96, 94, 93, 91, 90, 86, 83, 81, 76, 70, 65, 62, 55, 54, 50}, {97, 96, 95, 92, 90, 89, 88, 85, 79, 70, 67, 64, 55, 36}, {99, 98, 95, 68, 67, 62, 57, 43, 31}, {95, 68, 66, 56, 50, 46, 31}, {99, 97, 93, 92, 90, 89, 87, 86, 85, 84, 83, 82, 81, 78, 75, 69, 66, 65, 61, 59}, {96, 94, 91, 87, 84, 81, 80, 78, 66, 63, 53, 50}, {94, 90, 89, 88, 84, 81, 78, 69, 67, 66, 65, 62, 51, 50}, {99, 94, 93, 88, 86, 85, 82, 79, 78, 76, 75, 70, 66, 65, 62, 61}, {97, 96, 89, 85, 83, 82, 81, 76, 75, 66, 61, 60, 54}, {98, 94, 93, 92, 90, 85, 80, 65, 63, 60, 51}, {99, 98, 97, 87, 82, 81, 79, 71, 68, 51}, {93, 88, 86, 85, 84, 83, 82, 81, 77, 76, 61, 54}, {96, 94, 90, 88, 86, 83, 82, 81, 75, 62, 54}, {90, 89, 87, 86, 82, 79, 76, 63, 62, 61, 55}, {99, 90, 85, 81, 77, 75, 69, 65, 61, 54}, {98, 91, 85, 81, 80, 79, 77, 76, 70, 68, 61}, {87, 82, 81, 77, 76, 63, 62, 61}, {96, 91, 84, 82, 77, 76, 75, 54}, {92, 90, 78, 67, 50}, {84, 83, 80, 79, 78, 75, 65, 57}, {89, 83, 81, 78, 61, 56}, {92, 90, 89, 87, 82, 81, 76, 74, 66}, {92, 84, 83, 79, 78, 75, 61}, {91, 84, 75, 65, 54}, {88, 87, 79, 78, 76, 75, 65}, {84, 83, 81, 79, 77, 73, 68}, {97, 91, 89, 87, 84, 82, 73}, {97, 88, 81, 76, 74, 65}, {91, 85, 79, 78, 74, 73}, {89, 83, 76, 75, 74, 73}, {85, 82, 77, 61}, {86, 77, 76, 61}, {87, 75, 65, 61}, {93, 86, 79, 76, 73}, {80, 79, 78, 73}, {84, 75, 73}, {84, 80, 75}, {81, 74, 73}, {89, 77, 74}, {88, 67}, {62}, {74, 73}, {74, 73}, {83, 75}, {78, 73}, {73}, {77}, {80}, {75}, {76}, {87}, {92}, {75}, {}, {}, {}, {}, {}, {}, {}, {}, {}, {}, {}, {}, {}, {}, {}, {}, {}, {}, {}, {}, {}, {}, {}, {}, {}, {}, {}, {}];
n_opt = 300;
dur = [24, 28, 30, 5, 12, 18, 14, 20, 30, 3, 5, 18, 3, 10, 22, 4, 7, 28, 5, 10, 25, 9, 11, 14, 7, 16, 24, 8, 19, 23, 18, 23, 26, 4, 24, 26, 17, 19, 20, 16, 22, 25, 6, 20, 25, 7, 13, 15, 5, 15, 24, 17, 21, 25, 8, 23, 30, 4, 9, 30, 22, 25, 26, 13, 22, 23, 10, 12, 13, 13, 17, 18, 15, 19, 23, 7, 11, 14, 1, 9, 17, 22, 23, 26, 23, 24, 26, 3, 15, 26, 2, 5, 13, 22, 24, 27, 2, 3, 26, 11, 23, 27, 14, 17, 25, 9, 14, 17, 20, 28, 29, 2, 5, 26, 2, 3, 16, 4, 17, 25, 15, 19, 22, 2, 3, 19, 7, 11, 17, 2, 22, 23, 8, 14, 16, 16, 25, 30, 6, 11, 16, 1, 2, 30, 4, 5, 29, 11, 13, 14, 6, 7, 30, 13, 20, 25, 20, 21, 27, 13, 19, 23, 4, 13, 27, 11, 12, 24, 3, 7, 29, 25, 27, 30, 9, 15, 16, 5, 21, 29, 5, 10, 20, 7, 21, 24, 2, 8, 15, 1, 7, 15, 2, 10, 19, 1, 25, 26, 5, 21, 26, 4, 14, 15, 10, 29, 30, 23, 28, 29, 18, 29, 30, 6, 9, 20, 21, 24, 27, 5, 22, 27, 19, 20, 22, 6, 11, 23, 9, 25, 28, 2, 3, 12, 20, 22, 23, 1, 6, 8, 17, 23, 30, 5, 12, 16, 10, 15, 20, 5, 17, 24, 15, 18, 30, 11, 27, 28, 5, 7, 30, 2, 10, 14, 14, 21, 24, 19, 20, 29, 13, 19, 20, 1, 6, 24, 3, 21, 23, 14, 23, 24, 5, 16, 20, 2, 11, 20, 3, 19, 30, 4, 28, 30, 11, 27, 29, 7, 12, 13];
rreq = [|2, 2, 2, 1, 1, 1, 2, 2, 2, 3, 3, 3, 4, 3, 2, 4, 3, 2, 3, 3, 2, 2, 2, 2, 3, 2, 2, 4, 2, 1, 5, 4, 2, 3, 3, 3, 4, 3, 3, 1, 1, 1, 4, 2, 2, 2, 1, 1, 4, 2, 2, 5, 3, 3, 3, 2, 1, 3, 3, 2, 3, 3, 2, 5, 2, 1, 5, 3, 3, 1, 1, 1, 1, 1, 1, 3, 1, 1, 4, 4, 3, 4, 4, 4, 4, 4, 2, 3, 1, 1, 4, 4, 3, 4, 3, 3, 3, 2, 1, 4, 3, 3, 3, 2, 1, 2, 1, 1, 5, 5, 5, 1, 1, 1, 2, 2, 2, 3, 3, 3, 4, 4, 2, 2, 2, 2, 3, 2, 1, 4, 3, 3, 4, 3, 2, 4, 3, 2, 4, 3, 3, 3, 1, 1, 5, 2, 2, 3, 3, 2, 5, 5, 5, 4, 3, 3, 5, 4, 4, 2, 2, 2, 2, 2, 1, 2, 2, 2, 3, 3, 3, 4, 4, 3, 1, 1, 1, 3, 2, 1, 4, 3, 3, 5, 5, 5, 2, 1, 1, 3, 2, 2, 3, 2, 1, 4, 4, 4, 1, 1, 1, 5, 2, 2, 4, 2, 2, 2, 2, 2, 2, 2, 2, 2, 1, 1, 3, 3, 3, 3, 3, 3, 2, 2, 1, 4, 4, 4, 2, 1, 1, 4, 2, 2, 4, 3, 3, 4, 4, 4, 4, 4, 3, 4, 3, 3, 5, 5, 5, 2, 2, 2, 4, 4, 4, 4, 3, 2, 4, 3, 2, 3, 3, 2, 4, 4, 4, 4, 4, 4, 3, 3, 2, 4, 4, 4, 3, 2, 1, 3, 3, 3, 3, 2, 2, 4, 4, 4, 4, 2, 1, 5, 4, 4, 4, 4, 4, 4, 2, 2
 |4, 3, 2, 1, 1, 1, 4, 3, 2, 4, 2, 2, 5, 4, 3, 1, 1, 1, 4, 3, 2, 2, 2, 1, 2, 1, 1, 2, 2, 1, 4, 4, 4, 2, 2, 2, 2, 2, 2, 3, 2, 1, 5, 3, 2, 5, 3, 3, 4, 3, 1, 3, 3, 2, 5, 3, 2, 4, 4, 3, 5, 4, 4, 4, 4, 4, 4, 4, 4, 1, 1, 1, 5, 4, 4, 5, 2, 2, 1, 1, 1, 3, 3, 2, 1, 1, 1, 4, 3, 3, 3, 3, 2, 3, 3, 2, 5, 4, 3, 5, 5, 5, 4, 4, 3, 4, 4, 4, 5, 4, 3, 2, 2, 1, 4, 4, 4, 5, 4, 4, 3, 3, 1, 4, 3, 3, 3, 2, 1, 4, 4, 4, 4, 2, 2, 4, 4, 3, 4, 4, 4, 4, 3, 3, 2, 2, 2, 5, 5, 5, 1, 1, 1, 3, 2, 2, 3, 2, 2, 3, 2, 2, 3, 3, 3, 1, 1, 1, 5, 2, 1, 3, 3, 1, 3, 2, 1, 5, 3, 1, 1, 1, 1, 5, 4, 4, 3, 3, 3, 3, 3, 2, 2, 1, 1, 3, 2, 2, 5, 4, 3, 2, 1, 1, 3, 3, 3, 5, 4, 4, 4, 3, 2, 3, 3, 3, 3, 3, 3, 3, 3, 3, 4, 4, 4, 5, 2, 2, 3, 3, 2, 1, 1, 1, 3, 3, 3, 4, 3, 2, 5, 4, 3, 5, 5, 5, 2, 1, 1, 5, 3, 3, 4, 4, 4, 5, 3, 2, 4, 4, 3, 4, 3, 3, 4, 4, 4, 5, 5, 5, 5, 3, 3, 4, 4, 4, 3, 3, 3, 5, 5, 5, 4, 3, 1, 4, 3, 2, 5, 3, 3, 5, 4, 3, 4, 3, 3, 1, 1, 1
 |5, 2, 2, 5, 3, 1, 5, 5, 5, 3, 2, 2, 2, 2, 2, 2, 2, 1, 2, 2, 2, 4, 2, 2, 4, 3, 3, 5, 5, 5, 1, 1, 1, 4, 3, 3, 4, 3, 3, 3, 2, 2, 5, 4, 4, 4, 2, 1, 5, 4, 3, 2, 1, 1, 5, 3, 3, 3, 3, 3, 3, 3, 3, 3, 2, 2, 4, 3, 3, 4, 4, 4, 4, 2, 2, 2, 1, 1, 3, 2, 2, 3, 3, 3, 2, 1, 1, 3, 1, 1, 4, 3, 2, 4, 3, 2, 4, 3, 3, 3, 2, 2, 4, 3, 3, 3, 2, 2, 3, 3, 3, 2, 1, 1, 5, 5, 5, 1, 1, 1, 1, 1, 1, 3, 3, 3, 2, 2, 1, 3, 3, 2, 5, 4, 4, 3, 2, 2, 4, 4, 3, 5, 4, 4, 3, 1, 1, 4, 3, 3, 2, 2, 2, 4, 2, 2, 1, 1, 1, 4, 3, 2, 4, 2, 2, 4, 3, 3, 1, 1, 1, 3, 3, 2, 5, 3, 1, 3, 3, 3, 3, 3, 3, 3, 2, 1, 4, 2, 1, 3, 3, 1, 5, 4, 4, 1, 1, 1, 1, 1, 1, 4, 3, 3, 5, 2, 2, 1, 1, 1, 2, 2, 2, 2, 1, 1, 3, 2, 2, 5, 3, 3, 4, 4, 2, 3, 3, 3, 2, 2, 2, 4, 2, 2, 3, 2, 2, 3, 1, 1, 1, 1, 1, 2, 2, 2, 2, 2, 1, 3, 3, 3, 4, 2, 2, 4, 3, 3, 5, 3, 3, 4, 3, 3, 1, 1, 1, 2, 2, 2, 5, 3, 2, 5, 5, 5, 4, 3, 3, 1, 1, 1, 5, 3, 3, 3, 1, 1, 4, 2, 2, 3, 2, 1, 2, 2, 2, 3, 2, 1
 |4, 3, 3, 5, 5, 5, 1, 1, 1, 4, 4, 3, 2, 1, 1, 5, 2, 1, 3, 2, 2, 3, 3, 2, 5, 2, 2, 4, 3, 2, 4, 4, 4, 2, 1, 1, 1, 1, 1, 4, 3, 3, 2, 2, 2, 3, 3, 2, 4, 3, 3, 5, 4, 3, 2, 2, 2, 3, 2, 1, 4, 4, 3, 4, 2, 2, 4, 3, 2, 3, 2, 2, 5, 3, 3, 4, 4, 3, 3, 3, 3, 3, 3, 3, 3, 2, 2, 2, 2, 2, 2, 2, 2, 3, 2, 1, 2, 1, 1, 4, 3, 3, 3, 2, 2, 4, 3, 3, 5, 2, 1, 4, 4, 4, 5, 4, 2, 4, 3, 3, 5, 4, 4, 2, 1, 1, 5, 2, 2, 5, 3, 2, 5, 4, 3, 4, 3, 3, 4, 2, 1, 2, 2, 2, 3, 2, 2, 5, 4, 3, 1, 1, 1, 4, 3, 2, 4, 4, 3, 4, 3, 3, 3, 3, 1, 5, 4, 4, 2, 2, 2, 3, 1, 1, 4, 3, 3, 3, 1, 1, 5, 4, 3, 4, 3, 2, 3, 2, 2, 4, 4, 4, 2, 2, 2, 2, 2, 2, 5, 5, 5, 4, 4, 3, 4, 3, 3, 5, 5, 5, 2, 2, 1, 4, 4, 3, 3, 3, 3, 5, 4, 3, 3, 2, 2, 3, 3, 1, 4, 4, 4, 5, 4, 3, 3, 2, 2, 4, 4, 4, 3, 3, 3, 2, 2, 2, 2, 2, 2, 4, 4, 4, 4, 4, 4, 5, 5, 5, 4, 4, 4, 3, 3, 3, 4, 2, 2, 3, 2, 2, 5, 4, 4, 5, 3, 3, 1, 1, 1, 5, 3, 3, 5, 5, 5, 5, 3, 3, 3, 3, 2, 3, 3, 2, 2, 2, 1, 3, 3, 3
 |15, 11, 7, 21, 18, 17, 23, 23, 23, 17, 13, 11, 24, 20, 19, 25, 22, 17, 21, 20, 12, 23, 20, 16, 28, 16, 2, 20, 17, 6, 21, 16, 9, 19, 17, 16, 25, 20, 17, 27, 25, 25, 17, 15, 11, 25, 20, 14, 11, 9, 7, 17, 13, 2, 16, 16, 15, 28, 22, 12, 26, 26, 23, 28, 26, 25, 18, 18, 16, 17, 16, 16, 5, 5, 5, 14, 9, 6, 28, 28, 28, 26, 21, 13, 23, 20, 20, 29, 27, 27, 16, 13, 4, 24, 22, 21, 15, 14, 11, 27, 26, 24, 12, 9, 8, 12, 9, 4, 26, 23, 21, 16, 9, 8, 27, 24, 24, 19, 17, 13, 29, 25, 24, 9, 8, 4, 20, 17, 13, 13, 7, 6, 26, 16, 9, 30, 27, 22, 22, 11, 8, 16, 13, 12, 25, 21, 19, 21, 15, 9, 16, 13, 6, 20, 18, 18, 26, 20, 14, 7, 6, 6, 16, 15, 13, 2, 1, 1, 24, 22, 13, 29, 15, 4, 10, 9, 6, 28, 28, 28, 6, 6, 3, 27, 25, 23, 25, 19, 17, 20, 15, 7, 27, 26, 25, 22, 18, 14, 26, 13, 3, 17, 15, 14, 13, 12, 12, 22, 20, 13, 19, 17, 16, 16, 9, 8, 27, 18, 10, 7, 7, 7, 16, 7, 4, 15, 11, 7, 26, 16, 10, 18, 14, 11, 21, 18, 15, 5, 4, 3, 26, 25, 23, 20, 12, 2, 16, 11, 9, 26, 25, 24, 21, 19, 17, 27, 27, 25, 21, 20, 20, 25, 16, 14, 18, 10, 5, 19, 18, 14, 12, 10, 8, 21, 15, 11, 30, 28, 27, 13, 12, 12, 19, 14, 12, 24, 19, 14, 17, 15, 12, 17, 16, 16, 25, 18, 10, 21, 18, 17
 |13, 11, 10, 13, 9, 6, 7, 4, 3, 22, 15, 11, 20, 13, 6, 19, 15, 14, 27, 16, 11, 14, 14, 14, 15, 13, 11, 14, 10, 6, 23, 21, 20, 28, 27, 26, 29, 22, 18, 17, 14, 14, 11, 8, 8, 14, 14, 14, 23, 21, 21, 19, 16, 3, 29, 27, 26, 19, 18, 5, 17, 16, 16, 27, 26, 20, 25, 23, 19, 27, 19, 19, 13, 8, 3, 20, 12, 7, 25, 25, 21, 23, 21, 6, 25, 21, 17, 10, 9, 6, 22, 16, 2, 13, 12, 10, 20, 18, 7, 6, 5, 2, 16, 10, 6, 25, 22, 20, 17, 14, 11, 24, 18, 12, 24, 19, 14, 25, 20, 18, 17, 17, 15, 12, 9, 3, 8, 8, 8, 24, 17, 6, 16, 11, 5, 11, 8, 6, 4, 3, 2, 23, 15, 10, 24, 10, 9, 25, 13, 11, 28, 16, 13, 11, 5, 4, 25, 19, 13, 16, 11, 6, 11, 9, 3, 17, 17, 15, 19, 15, 12, 29, 27, 25, 16, 16, 15, 16, 11, 5, 25, 19, 16, 10, 8, 7, 16, 14, 2, 20, 16, 12, 27, 11, 4, 29, 21, 14, 28, 25, 22, 21, 18, 16, 15, 14, 12, 6, 6, 6, 27, 18, 2, 16, 11, 6, 21, 11, 8, 10, 7, 4, 22, 22, 22, 28, 21, 10, 5, 4, 2, 5, 4, 3, 19, 19, 16, 26, 25, 24, 13, 11, 8, 24, 21, 18, 10, 8, 4, 21, 14, 10, 25, 23, 19, 19, 17, 16, 24, 22, 21, 26, 22, 20, 20, 18, 17, 18, 17, 17, 17, 13, 13, 19, 12, 6, 24, 21, 10, 17, 15, 14, 15, 14, 6, 26, 22, 17, 22, 21, 21, 28, 25, 25, 22, 17, 11, 13, 9, 8
 |17, 14, 9, 19, 18, 17, 21, 19, 18, 5, 3, 2, 20, 13, 4, 5, 4, 2, 26, 21, 16, 28, 14, 2, 12, 6, 6, 3, 2, 1, 17, 16, 13, 20, 19, 19, 7, 6, 4, 16, 11, 8, 20, 20, 19, 26, 20, 10, 26, 18, 12, 20, 17, 14, 19, 16, 13, 27, 26, 25, 5, 4, 2, 20, 16, 11, 21, 18, 16, 25, 15, 7, 24, 21, 20, 16, 13, 8, 26, 20, 20, 7, 4, 3, 22, 18, 16, 17, 15, 13, 18, 18, 16, 8, 7, 6, 16, 13, 11, 10, 9, 3, 21, 20, 19, 19, 18, 13, 22, 18, 14, 17, 10, 5, 22, 22, 20, 22, 20, 19, 15, 10, 6, 28, 24, 20, 20, 17, 7, 6, 6, 6, 17, 13, 8, 8, 8, 7, 8, 7, 7, 21, 20, 18, 16, 9, 3, 19, 17, 17, 18, 15, 8, 23, 19, 16, 13, 9, 6, 20, 16, 7, 26, 23, 18, 23, 17, 17, 28, 27, 26, 14, 9, 7, 18, 18, 18, 16, 11, 10, 11, 10, 8, 22, 17, 10, 29, 25, 21, 11, 10, 6, 3, 3, 1, 25, 24, 20, 25, 24, 24, 18, 18, 18, 22, 18, 7, 3, 2, 2, 23, 18, 13, 21, 16, 1, 25, 17, 11, 8, 8, 8, 26, 24, 15, 16, 16, 14, 5, 5, 4, 12, 11, 7, 25, 19, 16, 25, 24, 20, 14, 14, 10, 15, 14, 14, 7, 7, 4, 17, 10, 9, 26, 23, 23, 16, 15, 12, 11, 9, 7, 26, 26, 26, 21, 16, 7, 25, 22, 14, 23, 12, 6, 30, 22, 13, 22, 13, 13, 10, 8, 7, 4, 4, 4, 21, 16, 14, 14, 8, 6, 26, 25, 24, 15, 12, 10, 23, 20, 18
 |2, 2, 2, 15, 14, 12, 24, 21, 19, 26, 20, 15, 14, 13, 10, 18, 16, 10, 16, 13, 5, 26, 15, 4, 22, 15, 8, 15, 11, 8, 22, 21, 12, 11, 11, 10, 29, 27, 23, 17, 16, 8, 20, 15, 4, 12, 9, 5, 26, 12, 7, 21, 21, 20, 20, 15, 7, 20, 16, 6, 11, 10, 4, 17, 15, 14, 13, 13, 11, 22, 22, 22, 18, 12, 9, 9, 6, 5, 22, 18, 3, 13, 8, 5, 9, 8, 8, 15, 6, 6, 11, 10, 10, 9, 6, 6, 13, 13, 12, 1, 1, 1, 25, 22, 19, 24, 20, 11, 26, 22, 21, 24, 14, 13, 18, 14, 10, 25, 14, 12, 30, 29, 28, 21, 16, 11, 20, 20, 18, 18, 17, 13, 25, 24, 23, 26, 25, 23, 10, 8, 3, 17, 14, 13, 10, 8, 5, 14, 14, 14, 22, 19, 11, 11, 5, 5, 29, 19, 13, 22, 19, 16, 26, 26, 26, 22, 20, 11, 30, 20, 8, 13, 13, 13, 23, 23, 23, 14, 13, 12, 12, 10, 5, 1, 1, 1, 5, 5, 3, 26, 25, 23, 21, 19, 18, 21, 16, 11, 7, 5, 5, 19, 18, 17, 29, 25, 24, 11, 11, 11, 14, 11, 4, 24, 10, 4, 26, 20, 17, 24, 22, 15, 12, 12, 9, 24, 17, 13, 28, 23, 21, 14, 11, 11, 16, 15, 12, 1, 1, 1, 24, 16, 7, 23, 21, 18, 26, 22, 18, 19, 15, 10, 19, 15, 9, 22, 13, 6, 8, 8, 8, 17, 16, 16, 25, 19, 10, 13, 10, 7, 26, 13, 7, 5, 4, 3, 15, 13, 5, 1, 1, 1, 12, 10, 9, 8, 8, 7, 22, 15, 11, 25, 16, 9, 23, 22, 17, 8, 6, 3|];